Mo  S 
 1.0000000000000000
    18.8999999999999986    0.0000000000000000    0.0000000000000012
    -9.4499999999999975   16.3678801315258937    0.0000000000000012
     0.0000000000000000    0.0000000000000000   24.6000000000000014
 Mo  S  
  36  64
Direct
  0.0555555555555555  0.1111111111111111  0.4908536600000001
  0.0555555555555555  0.2777777777777777  0.4908536600000001
  0.0555555555555555  0.4444444444444444  0.4908536600000001
  0.0555555555555555  0.6111111111111112  0.4908536600000001
  0.0555555555555555  0.7777777777777777  0.4908536600000000
  0.0555555555555555  0.9444444444444444  0.4908536600000001
  0.2222222222222222  0.1111111111111111  0.4908536600000001
  0.2222222222222222  0.2777777777777777  0.4908536600000001
  0.2222222222222222  0.4444444444444444  0.4908536600000001
  0.2222222222222222  0.6111111111111112  0.4908536600000000
  0.2222222222222222  0.7777777777777777  0.4908536600000001
  0.2222222222222222  0.9444444444444444  0.4908536600000001
  0.3888888888888888  0.1111111111111111  0.4908536600000001
  0.3888888888888888  0.2777777777777777  0.4908536600000001
  0.3888888888888888  0.4444444444444444  0.4908536600000000
  0.3888888888888888  0.6111111111111112  0.4908536600000001
  0.3888888888888888  0.7777777777777777  0.4908536600000001
  0.3888888888888888  0.9444444444444444  0.4908536600000001
  0.5555555555555556  0.1111111111111111  0.4908536600000001
  0.5555555555555556  0.2777777777777777  0.4908536600000000
  0.5555555555555555  0.4444444444444444  0.4908536600000001
  0.5555555555555556  0.6111111111111112  0.4908536600000001
  0.5555555555555556  0.7777777777777777  0.4908536600000001
  0.5555555555555556  0.9444444444444444  0.4908536600000001
  0.7222222222222222  0.1111111111111111  0.4908536600000000
  0.7222222222222221  0.2777777777777777  0.4908536600000001
  0.7222222222222220  0.4444444444444444  0.4908536600000001
  0.7222222222222221  0.6111111111111112  0.4908536600000001
  0.7222222222222221  0.7777777777777777  0.4908536600000001
  0.7222222222222221  0.9444444444444444  0.4908536600000001
  0.8888888888888888  0.1111111111111111  0.4908536600000001
  0.8888888888888888  0.2777777777777777  0.4908536600000001
  0.8888888888888888  0.4444444444444444  0.4908536600000001
  0.8888888888888888  0.6111111111111112  0.4908536600000001
  0.8888888888888888  0.7777777777777777  0.4908536600000001
  0.8888888888888888  0.9444444444444444  0.4908536600000001
  0.1111111111111111  0.0555555555555555  0.5553536600000000
  0.1111111111111111  0.2222222222222222  0.5553536600000000
  0.1111111111111111  0.3888888888888888  0.5553536600000000
  0.1111111111111111  0.5555555555555556  0.5553536600000000
  0.1111111111111110  0.7222222222222220  0.5553536600000000
  0.1111111111111110  0.8888888888888888  0.5553536600000001
  0.2777777777777778  0.0555555555555555  0.5553536600000000
  0.2777777777777777  0.3888888888888888  0.5553536600000000
  0.2777777777777777  0.5555555555555556  0.5553536600000000
  0.2777777777777776  0.8888888888888888  0.5553536600000000
  0.4444444444444444  0.0555555555555555  0.5553536600000000
  0.4444444444444444  0.2222222222222222  0.5553536600000000
  0.4444444444444444  0.3888888888888888  0.5553536600000000
  0.4444444444444443  0.7222222222222220  0.5553536600000000
  0.4444444444444444  0.8888888888888888  0.5553536600000000
  0.6111111111111110  0.0555555555555555  0.5553536600000000
  0.6111111111111110  0.2222222222222222  0.5553536600000000
  0.6111111111111110  0.3888888888888888  0.5553536600000001
  0.6111111111111112  0.5555555555555556  0.5553536600000000
  0.6111111111111112  0.7222222222222220  0.5553536600000000
  0.6111111111111110  0.8888888888888888  0.5553536600000000
  0.7777777777777777  0.0555555555555555  0.5553536600000000
  0.7777777777777777  0.2222222222222222  0.5553536600000001
  0.7777777777777778  0.3888888888888888  0.5553536600000000
  0.7777777777777778  0.5555555555555556  0.5553536600000000
  0.7777777777777776  0.8888888888888888  0.5553536600000000
  0.9444444444444446  0.0555555555555555  0.5553536600000001
  0.9444444444444444  0.2222222222222222  0.5553536600000000
  0.9444444444444444  0.3888888888888888  0.5553536600000000
  0.9444444444444444  0.5555555555555556  0.5553536600000000
  0.9444444444444442  0.7222222222222220  0.5553536600000000
  0.9444444444444444  0.8888888888888888  0.5553536600000000
  0.1111111111111111  0.0555555555555555  0.4263536600000001
  0.1111111111111111  0.2222222222222222  0.4263536600000001
  0.1111111111111111  0.3888888888888888  0.4263536600000001
  0.1111111111111111  0.5555555555555556  0.4263536600000001
  0.1111111111111110  0.7222222222222220  0.4263536600000000
  0.1111111111111110  0.8888888888888888  0.4263536600000001
  0.2777777777777778  0.0555555555555555  0.4263536600000001
  0.2777777777777777  0.3888888888888888  0.4263536600000001
  0.2777777777777777  0.5555555555555556  0.4263536600000000
  0.2777777777777776  0.8888888888888888  0.4263536600000001
  0.4444444444444444  0.0555555555555555  0.4263536600000001
  0.4444444444444444  0.2222222222222222  0.4263536600000001
  0.4444444444444444  0.3888888888888888  0.4263536600000000
  0.4444444444444443  0.7222222222222220  0.4263536600000001
  0.4444444444444444  0.8888888888888888  0.4263536600000001
  0.6111111111111110  0.0555555555555555  0.4263536600000001
  0.6111111111111110  0.2222222222222222  0.4263536600000000
  0.6111111111111110  0.3888888888888888  0.4263536600000001
  0.6111111111111112  0.5555555555555556  0.4263536600000001
  0.6111111111111112  0.7222222222222220  0.4263536600000001
  0.6111111111111110  0.8888888888888888  0.4263536600000001
  0.7777777777777777  0.0555555555555555  0.4263536600000000
  0.7777777777777777  0.2222222222222222  0.4263536600000001
  0.7777777777777778  0.3888888888888888  0.4263536600000001
  0.7777777777777778  0.5555555555555556  0.4263536600000001
  0.7777777777777776  0.8888888888888888  0.4263536600000001
  0.9444444444444446  0.0555555555555555  0.4263536600000001
  0.9444444444444444  0.2222222222222222  0.4263536600000001
  0.9444444444444444  0.3888888888888888  0.4263536600000001
  0.9444444444444444  0.5555555555555556  0.4263536600000001
  0.9444444444444442  0.7222222222222220  0.4263536600000001
  0.9444444444444444  0.8888888888888888  0.4263536600000001
