Mo  S 
 1.0000000000000000
    25.1999999999999993    0.0000000000000000    0.0000000000000016
   -12.5999999999999961   21.8238401753678559    0.0000000000000016
     0.0000000000000000    0.0000000000000000   24.6000000000000014
 Mo  S  
  64 116
Direct
  0.0416666666666667  0.0833333333333333  0.4908536600000001
  0.0416666666666667  0.2083333333333333  0.4908536600000001
  0.0416666666666667  0.3333333333333333  0.4908536600000001
  0.0416666666666667  0.4583333333333334  0.4908536600000001
  0.0416666666666667  0.5833333333333334  0.4908536600000000
  0.0416666666666666  0.7083333333333333  0.4908536600000001
  0.0416666666666667  0.8333333333333334  0.4908536600000001
  0.0416666666666667  0.9583333333333334  0.4908536600000001
  0.1666666666666667  0.0833333333333333  0.4908536600000001
  0.1666666666666667  0.2083333333333333  0.4908536600000001
  0.1666666666666667  0.3333333333333333  0.4908536600000001
  0.1666666666666667  0.4583333333333334  0.4908536600000000
  0.1666666666666667  0.5833333333333334  0.4908536600000001
  0.1666666666666666  0.7083333333333333  0.4908536600000001
  0.1666666666666667  0.8333333333333334  0.4908536600000001
  0.1666666666666667  0.9583333333333334  0.4908536600000001
  0.2916666666666666  0.0833333333333333  0.4908536600000001
  0.2916666666666666  0.2083333333333333  0.4908536600000001
  0.2916666666666666  0.3333333333333333  0.4908536600000000
  0.2916666666666666  0.4583333333333334  0.4908536600000001
  0.2916666666666666  0.5833333333333334  0.4908536600000001
  0.2916666666666666  0.7083333333333333  0.4908536600000001
  0.2916666666666666  0.8333333333333334  0.4908536600000001
  0.2916666666666666  0.9583333333333334  0.4908536600000001
  0.4166666666666666  0.0833333333333333  0.4908536600000001
  0.4166666666666666  0.2083333333333333  0.4908536600000000
  0.4166666666666666  0.3333333333333333  0.4908536600000001
  0.4166666666666665  0.4583333333333334  0.4908536600000001
  0.4166666666666666  0.5833333333333334  0.4908536600000001
  0.4166666666666666  0.7083333333333333  0.4908536600000001
  0.4166666666666666  0.8333333333333334  0.4908536600000001
  0.4166666666666666  0.9583333333333334  0.4908536600000001
  0.5416666666666666  0.0833333333333333  0.4908536600000000
  0.5416666666666666  0.2083333333333333  0.4908536600000001
  0.5416666666666666  0.3333333333333333  0.4908536600000001
  0.5416666666666666  0.4583333333333334  0.4908536600000001
  0.5416666666666666  0.5833333333333334  0.4908536600000001
  0.5416666666666666  0.7083333333333333  0.4908536600000001
  0.5416666666666667  0.8333333333333334  0.4908536600000001
  0.5416666666666666  0.9583333333333334  0.4908536600000001
  0.6666666666666665  0.0833333333333333  0.4908536600000001
  0.6666666666666665  0.2083333333333333  0.4908536600000001
  0.6666666666666665  0.3333333333333333  0.4908536600000001
  0.6666666666666666  0.4583333333333334  0.4908536600000001
  0.6666666666666666  0.5833333333333334  0.4908536600000001
  0.6666666666666665  0.7083333333333333  0.4908536600000001
  0.6666666666666666  0.8333333333333334  0.4908536600000001
  0.6666666666666665  0.9583333333333334  0.4908536600000001
  0.7916666666666664  0.0833333333333333  0.4908536600000001
  0.7916666666666664  0.2083333333333333  0.4908536600000001
  0.7916666666666666  0.3333333333333333  0.4908536600000001
  0.7916666666666666  0.4583333333333334  0.4908536600000001
  0.7916666666666664  0.5833333333333334  0.4908536600000001
  0.7916666666666664  0.7083333333333333  0.4908536600000001
  0.7916666666666664  0.8333333333333334  0.4908536600000001
  0.7916666666666664  0.9583333333333334  0.4908536600000000
  0.9166666666666665  0.0833333333333333  0.4908536600000001
  0.9166666666666664  0.2083333333333333  0.4908536600000001
  0.9166666666666665  0.3333333333333333  0.4908536600000001
  0.9166666666666666  0.4583333333333334  0.4908536600000001
  0.9166666666666666  0.5833333333333334  0.4908536600000001
  0.9166666666666665  0.7083333333333333  0.4908536600000001
  0.9166666666666666  0.8333333333333334  0.4908536600000000
  0.9166666666666665  0.9583333333333334  0.4908536600000001
  0.0833333333333333  0.0416666666666667  0.5553536600000000
  0.0833333333333333  0.1666666666666667  0.5553536600000000
  0.0833333333333333  0.2916666666666667  0.5553536600000000
  0.0833333333333333  0.4166666666666667  0.5553536600000000
  0.0833333333333333  0.5416666666666666  0.5553536600000000
  0.0833333333333333  0.6666666666666666  0.5553536600000001
  0.0833333333333333  0.7916666666666666  0.5553536600000000
  0.0833333333333332  0.9166666666666666  0.5553536600000000
  0.2083333333333333  0.0416666666666667  0.5553536600000000
  0.2083333333333333  0.2916666666666667  0.5553536600000000
  0.2083333333333333  0.4166666666666667  0.5553536600000000
  0.2083333333333333  0.5416666666666666  0.5553536600000001
  0.2083333333333333  0.6666666666666666  0.5553536600000000
  0.2083333333333333  0.9166666666666666  0.5553536600000000
  0.3333333333333333  0.0416666666666667  0.5553536600000000
  0.3333333333333333  0.1666666666666667  0.5553536600000000
  0.3333333333333333  0.2916666666666667  0.5553536600000000
  0.3333333333333333  0.5416666666666666  0.5553536600000000
  0.3333333333333333  0.7916666666666666  0.5553536600000000
  0.3333333333333333  0.9166666666666666  0.5553536600000000
  0.4583333333333333  0.0416666666666667  0.5553536600000000
  0.4583333333333333  0.1666666666666667  0.5553536600000000
  0.4583333333333333  0.2916666666666667  0.5553536600000001
  0.4583333333333333  0.4166666666666667  0.5553536600000000
  0.4583333333333333  0.5416666666666666  0.5553536600000000
  0.4583333333333333  0.6666666666666666  0.5553536600000000
  0.4583333333333333  0.7916666666666666  0.5553536600000000
  0.4583333333333333  0.9166666666666666  0.5553536600000000
  0.5833333333333331  0.0416666666666667  0.5553536600000000
  0.5833333333333331  0.1666666666666667  0.5553536600000001
  0.5833333333333331  0.2916666666666667  0.5553536600000000
  0.5833333333333331  0.4166666666666667  0.5553536600000000
  0.5833333333333331  0.5416666666666666  0.5553536600000000
  0.5833333333333331  0.7916666666666666  0.5553536600000000
  0.5833333333333331  0.9166666666666666  0.5553536600000000
  0.7083333333333333  0.0416666666666667  0.5553536600000001
  0.7083333333333333  0.1666666666666667  0.5553536600000000
  0.7083333333333333  0.2916666666666667  0.5553536600000000
  0.7083333333333333  0.4166666666666667  0.5553536600000000
  0.7083333333333333  0.5416666666666666  0.5553536600000000
  0.7083333333333333  0.6666666666666666  0.5553536600000000
  0.7083333333333333  0.7916666666666666  0.5553536600000000
  0.7083333333333333  0.9166666666666666  0.5553536600000000
  0.8333333333333331  0.0416666666666667  0.5553536600000000
  0.8333333333333331  0.1666666666666667  0.5553536600000000
  0.8333333333333330  0.2916666666666667  0.5553536600000000
  0.8333333333333331  0.4166666666666667  0.5553536600000000
  0.8333333333333331  0.5416666666666666  0.5553536600000000
  0.8333333333333331  0.6666666666666666  0.5553536600000000
  0.8333333333333331  0.9166666666666666  0.5553536600000000
  0.9583333333333333  0.0416666666666667  0.5553536600000000
  0.9583333333333333  0.1666666666666667  0.5553536600000000
  0.9583333333333333  0.2916666666666667  0.5553536600000000
  0.9583333333333333  0.4166666666666667  0.5553536600000000
  0.9583333333333333  0.5416666666666666  0.5553536600000000
  0.9583333333333333  0.6666666666666666  0.5553536600000000
  0.9583333333333333  0.7916666666666666  0.5553536600000000
  0.9583333333333333  0.9166666666666666  0.5553536600000001
  0.0833333333333333  0.0416666666666667  0.4263536600000001
  0.0833333333333333  0.1666666666666667  0.4263536600000001
  0.0833333333333333  0.2916666666666667  0.4263536600000001
  0.0833333333333333  0.4166666666666667  0.4263536600000001
  0.0833333333333333  0.5416666666666666  0.4263536600000000
  0.0833333333333333  0.6666666666666666  0.4263536600000001
  0.0833333333333333  0.7916666666666666  0.4263536600000001
  0.0833333333333332  0.9166666666666666  0.4263536600000001
  0.2083333333333333  0.0416666666666667  0.4263536600000001
  0.2083333333333333  0.2916666666666667  0.4263536600000001
  0.2083333333333333  0.4166666666666667  0.4263536600000000
  0.2083333333333333  0.5416666666666666  0.4263536600000001
  0.2083333333333333  0.6666666666666666  0.4263536600000001
  0.2083333333333333  0.9166666666666666  0.4263536600000001
  0.3333333333333333  0.0416666666666667  0.4263536600000001
  0.3333333333333333  0.1666666666666667  0.4263536600000001
  0.3333333333333333  0.2916666666666667  0.4263536600000000
  0.3333333333333333  0.5416666666666666  0.4263536600000001
  0.3333333333333333  0.7916666666666666  0.4263536600000001
  0.3333333333333333  0.9166666666666666  0.4263536600000001
  0.4583333333333333  0.0416666666666667  0.4263536600000001
  0.4583333333333333  0.1666666666666667  0.4263536600000000
  0.4583333333333333  0.2916666666666667  0.4263536600000001
  0.4583333333333333  0.4166666666666667  0.4263536600000001
  0.4583333333333333  0.5416666666666666  0.4263536600000001
  0.4583333333333333  0.6666666666666666  0.4263536600000001
  0.4583333333333333  0.7916666666666666  0.4263536600000001
  0.4583333333333333  0.9166666666666666  0.4263536600000001
  0.5833333333333331  0.0416666666666667  0.4263536600000000
  0.5833333333333331  0.1666666666666667  0.4263536600000001
  0.5833333333333331  0.2916666666666667  0.4263536600000001
  0.5833333333333331  0.4166666666666667  0.4263536600000001
  0.5833333333333331  0.5416666666666666  0.4263536600000001
  0.5833333333333331  0.7916666666666666  0.4263536600000001
  0.5833333333333331  0.9166666666666666  0.4263536600000001
  0.7083333333333333  0.0416666666666667  0.4263536600000001
  0.7083333333333333  0.1666666666666667  0.4263536600000001
  0.7083333333333333  0.2916666666666667  0.4263536600000001
  0.7083333333333333  0.4166666666666667  0.4263536600000001
  0.7083333333333333  0.5416666666666666  0.4263536600000001
  0.7083333333333333  0.6666666666666666  0.4263536600000001
  0.7083333333333333  0.7916666666666666  0.4263536600000001
  0.7083333333333333  0.9166666666666666  0.4263536600000001
  0.8333333333333331  0.0416666666666667  0.4263536600000001
  0.8333333333333331  0.1666666666666667  0.4263536600000001
  0.8333333333333330  0.2916666666666667  0.4263536600000001
  0.8333333333333331  0.4166666666666667  0.4263536600000001
  0.8333333333333331  0.5416666666666666  0.4263536600000001
  0.8333333333333331  0.6666666666666666  0.4263536600000001
  0.8333333333333331  0.9166666666666666  0.4263536600000000
  0.9583333333333333  0.0416666666666667  0.4263536600000001
  0.9583333333333333  0.1666666666666667  0.4263536600000001
  0.9583333333333333  0.2916666666666667  0.4263536600000001
  0.9583333333333333  0.4166666666666667  0.4263536600000001
  0.9583333333333333  0.5416666666666666  0.4263536600000001
  0.9583333333333333  0.6666666666666666  0.4263536600000001
  0.9583333333333333  0.7916666666666666  0.4263536600000000
  0.9583333333333333  0.9166666666666666  0.4263536600000001
