Mo  S 
 1.0000000000000000
    22.0500000000000007    0.0000000000000000    0.0000000000000014
   -11.0249999999999968   19.0958601534468748    0.0000000000000014
     0.0000000000000000    0.0000000000000000   24.6000000000000014
 Mo  S  
  49  88
Direct
  0.0476190476190476  0.0952380952380952  0.4908536600000001
  0.0476190476190476  0.2380952380952381  0.4908536600000001
  0.0476190476190476  0.3809523809523809  0.4908536600000001
  0.0476190476190475  0.5238095238095237  0.4908536600000001
  0.0476190476190476  0.6666666666666666  0.4908536600000000
  0.0476190476190477  0.8095238095238094  0.4908536600000001
  0.0476190476190475  0.9523809523809522  0.4908536600000001
  0.1904761904761905  0.0952380952380952  0.4908536600000001
  0.1904761904761904  0.2380952380952381  0.4908536600000001
  0.1904761904761904  0.3809523809523809  0.4908536600000001
  0.1904761904761904  0.5238095238095237  0.4908536600000000
  0.1904761904761905  0.6666666666666666  0.4908536600000001
  0.1904761904761904  0.8095238095238094  0.4908536600000001
  0.1904761904761904  0.9523809523809522  0.4908536600000001
  0.3333333333333333  0.0952380952380952  0.4908536600000001
  0.3333333333333333  0.2380952380952381  0.4908536600000001
  0.3333333333333333  0.3809523809523809  0.4908536600000000
  0.3333333333333333  0.5238095238095237  0.4908536600000001
  0.3333333333333333  0.6666666666666666  0.4908536600000001
  0.3333333333333334  0.8095238095238094  0.4908536600000001
  0.3333333333333333  0.9523809523809522  0.4908536600000001
  0.4761904761904763  0.0952380952380952  0.4908536600000001
  0.4761904761904763  0.2380952380952381  0.4908536600000000
  0.4761904761904763  0.3809523809523809  0.4908536600000001
  0.4761904761904761  0.5238095238095237  0.4908536600000001
  0.4761904761904763  0.6666666666666666  0.4908536600000001
  0.4761904761904762  0.8095238095238094  0.4908536600000001
  0.4761904761904761  0.9523809523809522  0.4908536600000001
  0.6190476190476190  0.0952380952380952  0.4908536600000000
  0.6190476190476190  0.2380952380952381  0.4908536600000001
  0.6190476190476190  0.3809523809523809  0.4908536600000001
  0.6190476190476190  0.5238095238095237  0.4908536600000001
  0.6190476190476191  0.6666666666666666  0.4908536600000001
  0.6190476190476190  0.8095238095238094  0.4908536600000001
  0.6190476190476190  0.9523809523809522  0.4908536600000001
  0.7619047619047618  0.0952380952380952  0.4908536600000001
  0.7619047619047618  0.2380952380952381  0.4908536600000001
  0.7619047619047618  0.3809523809523809  0.4908536600000001
  0.7619047619047618  0.5238095238095237  0.4908536600000001
  0.7619047619047620  0.6666666666666666  0.4908536600000001
  0.7619047619047618  0.8095238095238094  0.4908536600000001
  0.7619047619047618  0.9523809523809522  0.4908536600000001
  0.9047619047619048  0.0952380952380952  0.4908536600000001
  0.9047619047619048  0.2380952380952381  0.4908536600000001
  0.9047619047619048  0.3809523809523809  0.4908536600000001
  0.9047619047619048  0.5238095238095237  0.4908536600000001
  0.9047619047619048  0.6666666666666666  0.4908536600000001
  0.9047619047619048  0.8095238095238094  0.4908536600000001
  0.9047619047619045  0.9523809523809522  0.4908536600000001
  0.0952380952380952  0.0476190476190476  0.5553536600000000
  0.0952380952380952  0.1904761904761905  0.5553536600000000
  0.0952380952380952  0.3333333333333333  0.5553536600000000
  0.0952380952380951  0.4761904761904761  0.5553536600000000
  0.0952380952380952  0.6190476190476191  0.5553536600000000
  0.0952380952380952  0.7619047619047619  0.5553536600000001
  0.0952380952380951  0.9047619047619045  0.5553536600000000
  0.2380952380952381  0.0476190476190476  0.5553536600000000
  0.2380952380952381  0.3333333333333333  0.5553536600000000
  0.2380952380952380  0.6190476190476191  0.5553536600000001
  0.2380952380952379  0.9047619047619045  0.5553536600000000
  0.3809523809523809  0.0476190476190476  0.5553536600000000
  0.3809523809523809  0.1904761904761905  0.5553536600000000
  0.3809523809523809  0.3333333333333333  0.5553536600000000
  0.4277529309129074  0.5693380613723003  0.5553536600000000
  0.2396108501709321  0.4724189792534289  0.5553536600000000
  0.3809523809523809  0.7619047619047619  0.5553536600000000
  0.3809523809523808  0.9047619047619045  0.5553536600000000
  0.5238095238095237  0.0476190476190476  0.5553536600000000
  0.5238095238095237  0.1904761904761905  0.5553536600000000
  0.5238095238095237  0.3333333333333333  0.5553536600000001
  0.5230575621890725  0.4724189792534289  0.5553536600000000
  0.5238095238095237  0.7619047619047619  0.5553536600000000
  0.5238095238095236  0.9047619047619045  0.5553536600000000
  0.6666666666666666  0.0476190476190476  0.5553536600000000
  0.6666666666666666  0.1904761904761905  0.5553536600000001
  0.6666666666666666  0.3333333333333333  0.5553536600000000
  0.6666666666666665  0.4761904761904761  0.5553536600000000
  0.6666666666666665  0.6190476190476191  0.5553536600000000
  0.6666666666666665  0.7619047619047619  0.5553536600000000
  0.6666666666666665  0.9047619047619045  0.5553536600000000
  0.8095238095238095  0.0476190476190476  0.5553536600000001
  0.8095238095238094  0.1904761904761905  0.5553536600000000
  0.8095238095238094  0.3333333333333333  0.5553536600000000
  0.8095238095238092  0.4761904761904761  0.5553536600000000
  0.8095238095238092  0.6190476190476191  0.5553536600000000
  0.8095238095238092  0.9047619047619045  0.5553536600000000
  0.9523809523809523  0.0476190476190476  0.5553536600000000
  0.9523809523809523  0.1904761904761905  0.5553536600000000
  0.9523809523809523  0.3333333333333333  0.5553536600000000
  0.9523809523809523  0.4761904761904761  0.5553536600000000
  0.9523809523809523  0.6190476190476191  0.5553536600000000
  0.9523809523809523  0.7619047619047619  0.5553536600000000
  0.9523809523809520  0.9047619047619045  0.5553536600000000
  0.0952380952380952  0.0476190476190476  0.4263536600000001
  0.0952380952380952  0.1904761904761905  0.4263536600000001
  0.0952380952380952  0.3333333333333333  0.4263536600000001
  0.0952380952380951  0.4761904761904761  0.4263536600000001
  0.0952380952380952  0.6190476190476191  0.4263536600000000
  0.0952380952380952  0.7619047619047619  0.4263536600000001
  0.0952380952380951  0.9047619047619045  0.4263536600000001
  0.2380952380952381  0.0476190476190476  0.4263536600000001
  0.2380952380952381  0.3333333333333333  0.4263536600000001
  0.2380952380952380  0.6190476190476191  0.4263536600000001
  0.2380952380952379  0.9047619047619045  0.4263536600000001
  0.3809523809523809  0.0476190476190476  0.4263536600000001
  0.3809523809523809  0.1904761904761905  0.4263536600000001
  0.3809523809523809  0.3333333333333333  0.4263536600000000
  0.4277529309129074  0.5693380613723003  0.4263536600000000
  0.2396827156722669  0.4735827367272401  0.4263536600000000
  0.3809523809523809  0.7619047619047619  0.4263536600000001
  0.3809523809523808  0.9047619047619045  0.4263536600000001
  0.5238095238095237  0.0476190476190476  0.4263536600000001
  0.5238095238095237  0.1904761904761905  0.4263536600000000
  0.5238095238095237  0.3333333333333333  0.4263536600000001
  0.5249602249008598  0.4735835131626965  0.4263536600000001
  0.5238095238095237  0.7619047619047619  0.4263536600000001
  0.5238095238095236  0.9047619047619045  0.4263536600000001
  0.6666666666666666  0.0476190476190476  0.4263536600000000
  0.6666666666666666  0.1904761904761905  0.4263536600000001
  0.6666666666666666  0.3333333333333333  0.4263536600000001
  0.6666666666666665  0.4761904761904761  0.4263536600000001
  0.6666666666666665  0.6190476190476191  0.4263536600000001
  0.6666666666666665  0.7619047619047619  0.4263536600000001
  0.6666666666666665  0.9047619047619045  0.4263536600000001
  0.8095238095238095  0.0476190476190476  0.4263536600000001
  0.8095238095238094  0.1904761904761905  0.4263536600000001
  0.8095238095238094  0.3333333333333333  0.4263536600000001
  0.8095238095238092  0.4761904761904761  0.4263536600000001
  0.8095238095238092  0.6190476190476191  0.4263536600000001
  0.8095238095238092  0.9047619047619045  0.4263536600000001
  0.9523809523809523  0.0476190476190476  0.4263536600000001
  0.9523809523809523  0.1904761904761905  0.4263536600000001
  0.9523809523809523  0.3333333333333333  0.4263536600000001
  0.9523809523809523  0.4761904761904761  0.4263536600000001
  0.9523809523809523  0.6190476190476191  0.4263536600000001
  0.9523809523809523  0.7619047619047619  0.4263536600000001
  0.9523809523809520  0.9047619047619045  0.4263536600000001
