Mo S 
 1.0000000000000000
    15.7500000000000000    0.0000000000000000    0.0000000000000010
    -7.8749999999999973   13.6399001096049091    0.0000000000000010
     0.0000000000000000    0.0000000000000000   24.6000000000000014
 Mo  S  
  25  44
Direct
  0.0666666666666667  0.1333333333333333  0.4908536600000001
  0.0666666666666667  0.3333333333333333  0.4908536600000001
  0.0666666666666667  0.5333333333333333  0.4908536600000001
  0.0666666666666667  0.7333333333333335  0.4908536600000001
  0.0666666666666667  0.9333333333333335  0.4908536600000000
  0.2666666666666667  0.1333333333333333  0.4908536600000001
  0.2666666666666667  0.3333333333333333  0.4908536600000001
  0.2666666666666667  0.5333333333333333  0.4908536600000001
  0.2666666666666667  0.7333333333333335  0.4908536600000000
  0.2666666666666667  0.9333333333333335  0.4908536600000001
  0.4666666666666666  0.1333333333333333  0.4908536600000001
  0.4666666666666667  0.3333333333333333  0.4908536600000001
  0.4666666666666667  0.5333333333333333  0.4908536600000000
  0.4666666666666667  0.7333333333333335  0.4908536600000001
  0.4666666666666667  0.9333333333333335  0.4908536600000001
  0.6666666666666667  0.1333333333333333  0.4908536600000001
  0.6666666666666667  0.3333333333333333  0.4908536600000000
  0.6666666666666666  0.5333333333333333  0.4908536600000001
  0.6666666666666667  0.7333333333333335  0.4908536600000001
  0.6666666666666667  0.9333333333333335  0.4908536600000001
  0.8666666666666667  0.1333333333333333  0.4908536600000000
  0.8666666666666668  0.3333333333333333  0.4908536600000001
  0.8666666666666665  0.5333333333333333  0.4908536600000001
  0.8666666666666667  0.7333333333333335  0.4908536600000001
  0.8666666666666667  0.9333333333333335  0.4908536600000001
  0.1333333333333333  0.0666666666666667  0.5553536600000000
  0.1333333333333333  0.2666666666666667  0.5553536600000000
  0.1333333333333333  0.4666666666666666  0.5553536600000000
  0.1333333333333333  0.6666666666666667  0.5553536600000000
  0.1333333333333334  0.8666666666666667  0.5553536600000000
  0.3333333333333333  0.0666666666666667  0.5553536600000000
  0.3333333333333333  0.4666666666666666  0.5553536600000000
  0.3333333333333333  0.8666666666666667  0.5553536600000001
  0.5333333333333333  0.0666666666666667  0.5553536600000000
  0.5333333333333333  0.2666666666666667  0.5553536600000000
  0.5333333333333333  0.4666666666666666  0.5553536600000000
  0.5333333333333333  0.6666666666666667  0.5553536600000001
  0.5333333333333333  0.8666666666666667  0.5553536600000000
  0.7333333333333332  0.0666666666666667  0.5553536600000000
  0.7333333333333334  0.2666666666666667  0.5553536600000000
  0.7333333333333334  0.4666666666666666  0.5553536600000001
  0.7333333333333334  0.8666666666666667  0.5553536600000000
  0.9333333333333333  0.0666666666666667  0.5553536600000000
  0.9333333333333333  0.2666666666666667  0.5553536600000001
  0.9333333333333333  0.4666666666666666  0.5553536600000000
  0.9333333333333335  0.6666666666666667  0.5553536600000000
  0.9333333333333333  0.8666666666666667  0.5553536600000000
  0.1333333333333333  0.0666666666666667  0.4263536600000001
  0.1333333333333333  0.2666666666666667  0.4263536600000001
  0.1333333333333333  0.4666666666666666  0.4263536600000001
  0.1333333333333333  0.6666666666666667  0.4263536600000001
  0.1333333333333334  0.8666666666666667  0.4263536600000000
  0.3333333333333333  0.0666666666666667  0.4263536600000001
  0.3333333333333333  0.4666666666666666  0.4263536600000001
  0.3333333333333333  0.8666666666666667  0.4263536600000001
  0.5333333333333333  0.0666666666666667  0.4263536600000001
  0.5333333333333333  0.2666666666666667  0.4263536600000001
  0.5333333333333333  0.4666666666666666  0.4263536600000000
  0.5333333333333333  0.6666666666666667  0.4263536600000001
  0.5333333333333333  0.8666666666666667  0.4263536600000001
  0.7333333333333332  0.0666666666666667  0.4263536600000001
  0.7333333333333334  0.2666666666666667  0.4263536600000000
  0.7333333333333334  0.4666666666666666  0.4263536600000001
  0.7333333333333334  0.8666666666666667  0.4263536600000001
  0.9333333333333333  0.0666666666666667  0.4263536600000000
  0.9333333333333333  0.2666666666666667  0.4263536600000001
  0.9333333333333333  0.4666666666666666  0.4263536600000001
  0.9333333333333335  0.6666666666666667  0.4263536600000001
  0.9333333333333333  0.8666666666666667  0.4263536600000001
