Ag 
 1.0000000000000000
    17.5000000000000000    0.0000000000000000    0.0000000000000000
     0.0000000000000000   17.5000000000000000    0.0000000000000000
     0.0000000000000000    0.0000000000000000   17.5000000000000000
 Ag 
   6
Cartesian
 10.2500000000000000 10.2500000000000000 10.2500000000000000
 13.2500000000000000 13.2500000000000000 13.2500000000000000
  7.2500000000000000 13.2500000000000000 10.2500000000000000
 10.2500000000000000  7.2500000000000000 13.2500000000000000
 10.2500000000000000 13.2500000000000000  7.2500000000000000
  4.2500000000000000  4.2500000000000000  4.2500000000000000
