Ag 
 1.0000000000000000
    17.5000000000000000    0.0000000000000000    0.0000000000000000
     0.0000000000000000   17.5000000000000000    0.0000000000000000
     0.0000000000000000    0.0000000000000000   17.5000000000000000
 Ag 
   6
Cartesian
 10.3455788034212546  4.8459339145194482  6.3031488867603498
  5.9882533436133603  5.9141766344940159 11.4808269332380206
 12.4542687327367432  6.7950259807246791 11.5478524139387684
 12.1615610647228767  8.8634914832584037  6.5184402593519692
 11.5871139658523497  6.2454259295320860 10.8628367070537095
  9.8869767901597072 12.4898135120952123  6.4041966503061651
