Ag5
1.0
   30.0     0.0     0.0
    0.0    30.0     0.0
    0.0     0.0    30.0
Ag
5
direct
   0.4   0.4   0.4
   0.5   0.5   0.5
   0.3   0.5   0.4
   0.4   0.3   0.5
   0.4   0.5   0.3
