Ag 
 1.0000000000000000
    22.5000000000000000    0.0000000000000000    0.0000000000000000
     0.0000000000000000   22.5000000000000000    0.0000000000000000
     0.0000000000000000    0.0000000000000000   22.5000000000000000
 Ag 
   6
Cartesian
 12.7500000000000000 12.7500000000000000 12.7500000000000000
 15.7500000000000000 15.7500000000000000 15.7500000000000000
  9.7500000000000000 15.7500000000000000 12.7500000000000000
 12.7500000000000000  9.7500000000000000 15.7500000000000000
 12.7500000000000000 15.7500000000000000  9.7500000000000000
  6.7500000000000000  6.7500000000000000  6.7500000000000000
