Ag 
 1.0000000000000000
    22.5000000000000000    0.0000000000000000    0.0000000000000000
     0.0000000000000000   22.5000000000000000    0.0000000000000000
     0.0000000000000000    0.0000000000000000   22.5000000000000000
 Ag 
   7
Cartesian
  8.2500000000000000  8.2500000000000000  8.2500000000000000
 11.2500000000000000 11.2500000000000000 11.2500000000000000
  5.2500000000000000 11.2500000000000000  8.2500000000000000
  8.2500000000000000  5.2500000000000000 11.2500000000000000
  8.2500000000000000 11.2500000000000000  5.2500000000000000
  2.2500000000000000  2.2500000000000000  2.2500000000000000
 20.2500000000000000 20.2500000000000000 20.2500000000000000
