Ag 
 1.0000000000000000
    22.5000000000000000    0.0000000000000000    0.0000000000000000
     0.0000000000000000   22.5000000000000000    0.0000000000000000
     0.0000000000000000    0.0000000000000000   22.5000000000000000
 Ag 
   5
Cartesian
 11.2500000000000000 11.2500000000000000 11.2500000000000000
 14.2500000000000000 14.2500000000000000 14.2500000000000000
  8.2500000000000000 14.2500000000000000 11.2500000000000000
 11.2500000000000000  8.2500000000000000 14.2500000000000000
 11.2500000000000000 14.2500000000000000  8.2500000000000000
