Ag 
 1.0000000000000000
    17.5000000000000000    0.0000000000000000    0.0000000000000000
     0.0000000000000000   17.5000000000000000    0.0000000000000000
     0.0000000000000000    0.0000000000000000   17.5000000000000000
 Ag 
   7
Cartesian
  5.7500000000000000  5.7500000000000000  5.7500000000000000
  8.7500000000000000  8.7500000000000000  8.7500000000000000
  2.7500000000000000  8.7500000000000000  5.7500000000000000
  5.7500000000000000  2.7500000000000000  8.7500000000000000
  5.7500000000000000  8.7500000000000000  2.7500000000000000
 -0.2500000000000000 -0.2500000000000000 -0.2500000000000000
 17.7500000000000000 17.7500000000000000 17.7500000000000000
