Ag 
 1.0000000000000000
    17.5000000000000000    0.0000000000000000    0.0000000000000000
     0.0000000000000000   17.5000000000000000    0.0000000000000000
     0.0000000000000000    0.0000000000000000   17.5000000000000000
 Ag 
   6
Cartesian
  8.6752070000000003  5.8975089999999994  4.5419280000000004
  6.4377080000000007 11.0814550000000001  5.6458469999999998
  8.8170959999999994  8.9864660000000001  7.3279499999999995
  4.9113379999999998  6.3555729999999997  5.6849769999999999
  9.0331919999999997 12.1214599999999990 10.3079989999999988
 11.2364850000000001  6.6882799999999998  7.9080709999999996
